c CNF SAT conversion from Graph Coloring
c Input File name: temp
c Number of Colors  2
c Conversion type = Standard
c Conversion Code: S--
p cnf 6 9
1 2 0 
3 4 0 
5 6 0 
-1 -3 0 
-2 -4 0 
-1 -5 0 
-2 -6 0 
-3 -5 0 
-4 -6 0 
